nextiteration=false;
repeatOrder=0;
repeatEdge=0;
sp=0;

vertexct = 16 ;
orderct = 2 ;
order = [|5,16,5 | 2,15,3 |] ;

edgect = 24 ;
edet = array2d(Edge, Eindex,
[| %1,1,0,0|
   1,2,5,1,50
  | 2,3,5,1,50
  | 3,4,5,1,50
  
  | 5,6,5,1,50
  | 6,7,5,10,50
  | 7,8,5,1,50
 
  | 9,10,5,1,50
  | 10,11,5,10,50
  | 11,12,5,1,50
 
  | 13,14,5,1,50
  | 14,15,5,1,50
  | 15,16,5,1,50
  
  | 1,5,5,1,50
  | 5,9,5,1,50
  | 9,13,5,1,50
         
  | 2,6,5,1,50
 | 6,10,5,10 ,50
  | 10,14,5,1,50
    
  | 3,7,5,1,50 
  | 7,11,5,10,50
  | 11,15,5,1,50
      
  | 4,8,5,1,50
  | 8,12,5,1,50
  | 12,16,5,1,50 
  |] ) ;
  
  pathct = 8 ;
  maxpath = 5 ;
  pathlen = [5,5,5,5,4,4,4,4] ;
  pathstep = [|
    4,5,6,23,24
    | 4,5,20,21,12
    | 4,17,18,11,12
    | 14,15,10,11,12
    | 2,19,20,21,0
    | 16,17,18,11,0
    | 16,5,20,21,0
    | 16,17,8,21,0
    |] ;
    